(set-option :produce-unsat-cores true )
(set-logic AUFDTLIA )
(declare-sort A$ 0 )
(declare-sort Nat$ 0 )
(declare-sort A_a_fun$ 0 )
(declare-sort A_bool_fun$ 0 )
(declare-sort Bool_a_fun$ 0 )
(declare-sort Nat_bool_fun$ 0 )
(declare-sort Bool_bool_fun$ 0 )
(declare-sort A_stream_a_fun$ 0 )
(declare-sort A_a_fun_a_a_fun_fun$ 0 )
(declare-sort A_a_stream_a_fun_fun$ 0 )
(declare-sort A_a_fun_a_bool_fun_fun$ 0 )
(declare-sort A_bool_fun_a_a_fun_fun$ 0 )
(declare-sort A_bool_fun_a_bool_fun_fun$ 0 )
(declare-sort Bool_a_fun_bool_a_fun_fun$ 0 )
(declare-sort Bool_a_fun_bool_bool_fun_fun$ 0 )
(declare-sort Bool_bool_fun_bool_a_fun_fun$ 0 )
(declare-sort Bool_bool_fun_bool_bool_fun_fun$ 0 )
(declare-sort A_stream$ 0)
(declare-fun shd$ (A_stream$)A$)
(declare-fun stl$ (A_stream$)A_stream$)
(declare-fun sCons$ (A$ A_stream$ )A_stream$)
(declare-fun p$ ()A_bool_fun$ )
(declare-fun s$ ()A_stream$ )
(declare-fun uu$ ()Bool_bool_fun$ )
(declare-fun uua$ ()Nat_bool_fun$ )
(declare-fun uub$ ()A_a_fun$ )
(declare-fun uuc$ ()Bool_bool_fun$ )
(declare-fun uud$ (A$ )A_a_fun$ )
(declare-fun uue$ (A$ )Bool_a_fun$ )
(declare-fun uuf$ (Bool )A_bool_fun$ )
(declare-fun uug$ (Bool )Bool_bool_fun$ )
(declare-fun uuh$ ()A_a_stream_a_fun_fun$ )
(declare-fun comp$ (Bool_bool_fun$ )A_bool_fun_a_bool_fun_fun$ )
(declare-fun snth$ (A_stream$ Nat$ )A$ )
(declare-fun comp$a (A_a_fun$ )A_a_fun_a_a_fun_fun$ )
(declare-fun comp$b (Bool_a_fun$ )A_bool_fun_a_a_fun_fun$ )
(declare-fun comp$c (A_bool_fun$ )Bool_a_fun_bool_bool_fun_fun$ )
(declare-fun comp$d (A_a_fun$ )Bool_a_fun_bool_a_fun_fun$ )
(declare-fun comp$e (Bool_a_fun$ )Bool_bool_fun_bool_a_fun_fun$ )
(declare-fun comp$f (Bool_bool_fun$ )Bool_bool_fun_bool_bool_fun_fun$ )
(declare-fun comp$g (A_bool_fun$ )A_a_fun_a_bool_fun_fun$ )
(declare-fun least$ (Nat_bool_fun$ )Nat$ )
(declare-fun sdrop$ (Nat$ A_stream$ )A_stream$ )
(declare-fun fun_app$ (Nat_bool_fun$ Nat$ )Bool )
(declare-fun fun_app$a (A_bool_fun$ A$ )Bool )
(declare-fun fun_app$b (Bool_bool_fun$ Bool )Bool )
(declare-fun fun_app$c (A_stream_a_fun$ A_stream$ )A$ )
(declare-fun fun_app$d (A_a_stream_a_fun_fun$ A$ )A_stream_a_fun$ )
(declare-fun fun_app$e (Bool_a_fun$ Bool )A$ )
(declare-fun fun_app$f (A_a_fun$ A$ )A$ )
(declare-fun fun_app$g (A_bool_fun_a_bool_fun_fun$ A_bool_fun$ )A_bool_fun$ )
(declare-fun fun_app$h (A_a_fun_a_a_fun_fun$ A_a_fun$ )A_a_fun$ )
(declare-fun fun_app$i (A_bool_fun_a_a_fun_fun$ A_bool_fun$ )A_a_fun$ )
(declare-fun fun_app$j (Bool_a_fun_bool_bool_fun_fun$ Bool_a_fun$ )Bool_bool_fun$ )
(declare-fun fun_app$k (Bool_a_fun_bool_a_fun_fun$ Bool_a_fun$ )Bool_a_fun$ )
(declare-fun fun_app$l (Bool_bool_fun_bool_a_fun_fun$ Bool_bool_fun$ )Bool_a_fun$ )
(declare-fun fun_app$m (Bool_bool_fun_bool_bool_fun_fun$ Bool_bool_fun$ )Bool_bool_fun$ )
(declare-fun fun_app$n (A_a_fun_a_bool_fun_fun$ A_a_fun$ )A_bool_fun$ )
(declare-fun case_stream$ (A_a_stream_a_fun_fun$ A_stream$ )A$ )
(declare-fun sdrop_while$ (A_bool_fun$ A_stream$ )A_stream$ )
(assert (! (forall ((?v0 Nat$ ))(! (= (fun_app$ uua$ ?v0 )(fun_app$a p$ (snth$ s$ ?v0 ))):pattern ((fun_app$ uua$ ?v0 )))):named a0 ))
(assert (! (forall ((?v0 Bool ))(! (= (fun_app$b uu$ ?v0 )(not ?v0 )):pattern ((fun_app$b uu$ ?v0 )))):named a1 ))
(assert (! (forall ((?v0 Bool )(?v1 Bool ))(! (= (fun_app$b (uug$ ?v0 )?v1 )?v0 ):pattern ((fun_app$b (uug$ ?v0 )?v1 )))):named a2 ))
(assert (! (forall ((?v0 Bool )(?v1 A$ ))(! (= (fun_app$a (uuf$ ?v0 )?v1 )?v0 ):pattern ((fun_app$a (uuf$ ?v0 )?v1 )))):named a3 ))
(assert (! (forall ((?v0 A$ )(?v1 A_stream$ ))(! (= (fun_app$c (fun_app$d uuh$ ?v0 )?v1 )?v0 ):pattern ((fun_app$c (fun_app$d uuh$ ?v0 )?v1 )))):named a4 ))
(assert (! (forall ((?v0 A$ )(?v1 Bool ))(! (= (fun_app$e (uue$ ?v0 )?v1 )?v0 ):pattern ((fun_app$e (uue$ ?v0 )?v1 )))):named a5 ))
(assert (! (forall ((?v0 A$ )(?v1 A$ ))(! (= (fun_app$f (uud$ ?v0 )?v1 )?v0 ):pattern ((fun_app$f (uud$ ?v0 )?v1 )))):named a6 ))
(assert (! (forall ((?v0 Bool ))(! (= (fun_app$b uuc$ ?v0 )?v0 ):pattern ((fun_app$b uuc$ ?v0 )))):named a7 ))
(assert (! (forall ((?v0 A$ ))(! (= (fun_app$f uub$ ?v0 )?v0 ):pattern ((fun_app$f uub$ ?v0 )))):named a8 ))
(assert (! (not (= (sdrop_while$ (fun_app$g (comp$ uu$ )p$ )s$ )(sdrop$ (least$ uua$ )s$ ))):named a9 ))
(assert (! (exists ((?v0 Nat$ ))(fun_app$a p$ (snth$ s$ ?v0 ))):named a10 ))
(assert (! (forall ((?v0 A_a_fun$ )(?v1 A_a_fun$ )(?v2 A$ ))(! (= (fun_app$f (fun_app$h (comp$a ?v0 )?v1 )?v2 )(fun_app$f ?v0 (fun_app$f ?v1 ?v2 ))):pattern ((fun_app$f (fun_app$h (comp$a ?v0 )?v1 )?v2 )))):named a11 ))
(assert (! (forall ((?v0 Bool_a_fun$ )(?v1 A_bool_fun$ )(?v2 A$ ))(! (= (fun_app$f (fun_app$i (comp$b ?v0 )?v1 )?v2 )(fun_app$e ?v0 (fun_app$a ?v1 ?v2 ))):pattern ((fun_app$f (fun_app$i (comp$b ?v0 )?v1 )?v2 )))):named a12 ))
(assert (! (forall ((?v0 A_bool_fun$ )(?v1 Bool_a_fun$ )(?v2 Bool ))(! (= (fun_app$b (fun_app$j (comp$c ?v0 )?v1 )?v2 )(fun_app$a ?v0 (fun_app$e ?v1 ?v2 ))):pattern ((fun_app$b (fun_app$j (comp$c ?v0 )?v1 )?v2 )))):named a13 ))
(assert (! (forall ((?v0 A_a_fun$ )(?v1 Bool_a_fun$ )(?v2 Bool ))(! (= (fun_app$e (fun_app$k (comp$d ?v0 )?v1 )?v2 )(fun_app$f ?v0 (fun_app$e ?v1 ?v2 ))):pattern ((fun_app$e (fun_app$k (comp$d ?v0 )?v1 )?v2 )))):named a14 ))
(assert (! (forall ((?v0 Bool_a_fun$ )(?v1 Bool_bool_fun$ )(?v2 Bool ))(! (= (fun_app$e (fun_app$l (comp$e ?v0 )?v1 )?v2 )(fun_app$e ?v0 (fun_app$b ?v1 ?v2 ))):pattern ((fun_app$e (fun_app$l (comp$e ?v0 )?v1 )?v2 )))):named a15 ))
(assert (! (forall ((?v0 Bool_bool_fun$ )(?v1 Bool_bool_fun$ )(?v2 Bool ))(! (= (fun_app$b (fun_app$m (comp$f ?v0 )?v1 )?v2 )(fun_app$b ?v0 (fun_app$b ?v1 ?v2 ))):pattern ((fun_app$b (fun_app$m (comp$f ?v0 )?v1 )?v2 )))):named a16 ))
(assert (! (forall ((?v0 A_bool_fun$ )(?v1 A_a_fun$ )(?v2 A$ ))(! (= (fun_app$a (fun_app$n (comp$g ?v0 )?v1 )?v2 )(fun_app$a ?v0 (fun_app$f ?v1 ?v2 ))):pattern ((fun_app$a (fun_app$n (comp$g ?v0 )?v1 )?v2 )))):named a17 ))
(assert (! (forall ((?v0 Bool_bool_fun$ )(?v1 A_bool_fun$ )(?v2 A$ ))(! (= (fun_app$a (fun_app$g (comp$ ?v0 )?v1 )?v2 )(fun_app$b ?v0 (fun_app$a ?v1 ?v2 ))):pattern ((fun_app$a (fun_app$g (comp$ ?v0 )?v1 )?v2 )))):named a18 ))
(assert (! (forall ((?v0 Nat_bool_fun$ )(?v1 Nat$ ))(=> (fun_app$ ?v0 ?v1 )(fun_app$ ?v0 (least$ ?v0 )))):named a19 ))
(assert (! (forall ((?v0 A_a_fun$ ))(= (fun_app$h (comp$a uub$ )?v0 )?v0 )):named a20 ))
(assert (! (forall ((?v0 Bool_a_fun$ ))(= (fun_app$k (comp$d uub$ )?v0 )?v0 )):named a21 ))
(assert (! (forall ((?v0 Bool_bool_fun$ ))(= (fun_app$m (comp$f uuc$ )?v0 )?v0 )):named a22 ))
(assert (! (forall ((?v0 A_bool_fun$ ))(= (fun_app$g (comp$ uuc$ )?v0 )?v0 )):named a23 ))
(assert (! (forall ((?v0 A$ )(?v1 A_a_fun$ )(?v2 A$ ))(= (fun_app$f (fun_app$h (comp$a (uud$ ?v0 ))?v1 )?v2 )?v0 )):named a24 ))
(assert (! (forall ((?v0 A$ )(?v1 A_bool_fun$ )(?v2 A$ ))(= (fun_app$f (fun_app$i (comp$b (uue$ ?v0 ))?v1 )?v2 )?v0 )):named a25 ))
(assert (! (forall ((?v0 Bool )(?v1 Bool_a_fun$ )(?v2 Bool ))(= (fun_app$b (fun_app$j (comp$c (uuf$ ?v0 ))?v1 )?v2 )?v0 )):named a26 ))
(assert (! (forall ((?v0 A$ )(?v1 Bool_a_fun$ )(?v2 Bool ))(= (fun_app$e (fun_app$k (comp$d (uud$ ?v0 ))?v1 )?v2 )?v0 )):named a27 ))
(assert (! (forall ((?v0 A$ )(?v1 Bool_bool_fun$ )(?v2 Bool ))(= (fun_app$e (fun_app$l (comp$e (uue$ ?v0 ))?v1 )?v2 )?v0 )):named a28 ))
(assert (! (forall ((?v0 Bool )(?v1 Bool_bool_fun$ )(?v2 Bool ))(= (fun_app$b (fun_app$m (comp$f (uug$ ?v0 ))?v1 )?v2 )?v0 )):named a29 ))
(assert (! (forall ((?v0 Bool )(?v1 A_a_fun$ )(?v2 A$ ))(= (fun_app$a (fun_app$n (comp$g (uuf$ ?v0 ))?v1 )?v2 )?v0 )):named a30 ))
(assert (! (forall ((?v0 Bool )(?v1 A_bool_fun$ )(?v2 A$ ))(= (fun_app$a (fun_app$g (comp$ (uug$ ?v0 ))?v1 )?v2 )?v0 )):named a31 ))
(assert (! (forall ((?v0 Nat_bool_fun$ )(?v1 Nat_bool_fun$ ))(=> (and (exists ((?v2 Nat$ ))(fun_app$ ?v0 ?v2 ))(forall ((?v2 Nat$ ))(=> (fun_app$ ?v0 ?v2 )(fun_app$ ?v1 ?v2 ))))(fun_app$ ?v1 (least$ ?v0 )))):named a32 ))
(assert (! (forall ((?v0 Nat_bool_fun$ ))(=> (exists ((?v1 Nat$ ))(fun_app$ ?v0 ?v1 ))(fun_app$ ?v0 (least$ ?v0 )))):named a33 ))
(assert (! (forall ((?v0 Nat_bool_fun$ )(?v1 Nat$ )(?v2 Nat_bool_fun$ ))(=> (and (fun_app$ ?v0 ?v1 )(forall ((?v3 Nat$ ))(=> (fun_app$ ?v0 ?v3 )(fun_app$ ?v2 ?v3 ))))(fun_app$ ?v2 (least$ ?v0 )))):named a34 ))
(assert (! (forall ((?v0 Nat$ )(?v1 A_stream$ ))(= (shd$ (sdrop$ ?v0 ?v1 ))(snth$ ?v1 ?v0 ))):named a35 ))
(assert (! (forall ((?v0 Bool_bool_fun$ )(?v1 A_bool_fun$ )(?v2 A_a_fun$ ))(= (fun_app$g (comp$ ?v0 )(fun_app$n (comp$g ?v1 )?v2 ))(fun_app$n (comp$g (fun_app$g (comp$ ?v0 )?v1 ))?v2 ))):named a36 ))
(assert (! (forall ((?v0 Bool_bool_fun$ )(?v1 Bool_bool_fun$ )(?v2 A_bool_fun$ ))(= (fun_app$g (comp$ ?v0 )(fun_app$g (comp$ ?v1 )?v2 ))(fun_app$g (comp$ (fun_app$m (comp$f ?v0 )?v1 ))?v2 ))):named a37 ))
(assert (! (forall ((?v0 Bool_bool_fun$ )(?v1 A_bool_fun$ )(?v2 Bool_a_fun$ ))(= (fun_app$m (comp$f ?v0 )(fun_app$j (comp$c ?v1 )?v2 ))(fun_app$j (comp$c (fun_app$g (comp$ ?v0 )?v1 ))?v2 ))):named a38 ))
(assert (! (forall ((?v0 Bool_bool_fun$ )(?v1 Bool_bool_fun$ )(?v2 Bool_bool_fun$ ))(= (fun_app$m (comp$f ?v0 )(fun_app$m (comp$f ?v1 )?v2 ))(fun_app$m (comp$f (fun_app$m (comp$f ?v0 )?v1 ))?v2 ))):named a39 ))
(assert (! (forall ((?v0 A_bool_fun$ )(?v1 Bool_a_fun$ )(?v2 A_bool_fun$ ))(= (fun_app$n (comp$g ?v0 )(fun_app$i (comp$b ?v1 )?v2 ))(fun_app$g (comp$ (fun_app$j (comp$c ?v0 )?v1 ))?v2 ))):named a40 ))
(assert (! (forall ((?v0 A_bool_fun$ )(?v1 A_a_fun$ )(?v2 A_a_fun$ ))(= (fun_app$n (comp$g ?v0 )(fun_app$h (comp$a ?v1 )?v2 ))(fun_app$n (comp$g (fun_app$n (comp$g ?v0 )?v1 ))?v2 ))):named a41 ))
(assert (! (forall ((?v0 A_a_fun$ )(?v1 A_a_fun$ )(?v2 A_a_fun$ ))(= (fun_app$h (comp$a ?v0 )(fun_app$h (comp$a ?v1 )?v2 ))(fun_app$h (comp$a (fun_app$h (comp$a ?v0 )?v1 ))?v2 ))):named a42 ))
(assert (! (forall ((?v0 A_a_fun$ )(?v1 Bool_a_fun$ )(?v2 A_bool_fun$ ))(= (fun_app$h (comp$a ?v0 )(fun_app$i (comp$b ?v1 )?v2 ))(fun_app$i (comp$b (fun_app$k (comp$d ?v0 )?v1 ))?v2 ))):named a43 ))
(assert (! (forall ((?v0 Bool_a_fun$ )(?v1 Bool_bool_fun$ )(?v2 A_bool_fun$ ))(= (fun_app$i (comp$b ?v0 )(fun_app$g (comp$ ?v1 )?v2 ))(fun_app$i (comp$b (fun_app$l (comp$e ?v0 )?v1 ))?v2 ))):named a44 ))
(assert (! (forall ((?v0 Bool_a_fun$ )(?v1 A_bool_fun$ )(?v2 A_a_fun$ ))(= (fun_app$i (comp$b ?v0 )(fun_app$n (comp$g ?v1 )?v2 ))(fun_app$h (comp$a (fun_app$i (comp$b ?v0 )?v1 ))?v2 ))):named a45 ))
(assert (! (forall ((?v0 Bool_bool_fun$ )(?v1 A_bool_fun$ )(?v2 A_a_fun$ ))(= (fun_app$n (comp$g (fun_app$g (comp$ ?v0 )?v1 ))?v2 )(fun_app$g (comp$ ?v0 )(fun_app$n (comp$g ?v1 )?v2 )))):named a46 ))
(assert (! (forall ((?v0 Bool_bool_fun$ )(?v1 Bool_bool_fun$ )(?v2 A_bool_fun$ ))(= (fun_app$g (comp$ (fun_app$m (comp$f ?v0 )?v1 ))?v2 )(fun_app$g (comp$ ?v0 )(fun_app$g (comp$ ?v1 )?v2 )))):named a47 ))
(assert (! (forall ((?v0 Bool_bool_fun$ )(?v1 A_bool_fun$ )(?v2 Bool_a_fun$ ))(= (fun_app$j (comp$c (fun_app$g (comp$ ?v0 )?v1 ))?v2 )(fun_app$m (comp$f ?v0 )(fun_app$j (comp$c ?v1 )?v2 )))):named a48 ))
(assert (! (forall ((?v0 A_bool_fun$ )(?v1 Bool_a_fun$ )(?v2 A_bool_fun$ ))(= (fun_app$g (comp$ (fun_app$j (comp$c ?v0 )?v1 ))?v2 )(fun_app$n (comp$g ?v0 )(fun_app$i (comp$b ?v1 )?v2 )))):named a49 ))
(assert (! (forall ((?v0 Bool_bool_fun$ )(?v1 Bool_bool_fun$ )(?v2 Bool_bool_fun$ ))(= (fun_app$m (comp$f (fun_app$m (comp$f ?v0 )?v1 ))?v2 )(fun_app$m (comp$f ?v0 )(fun_app$m (comp$f ?v1 )?v2 )))):named a50 ))
(assert (! (forall ((?v0 A_bool_fun$ )(?v1 A_a_fun$ )(?v2 A_a_fun$ ))(= (fun_app$n (comp$g (fun_app$n (comp$g ?v0 )?v1 ))?v2 )(fun_app$n (comp$g ?v0 )(fun_app$h (comp$a ?v1 )?v2 )))):named a51 ))
(assert (! (forall ((?v0 A_bool_fun$ )(?v1 Bool_a_fun$ )(?v2 Bool_bool_fun$ ))(= (fun_app$m (comp$f (fun_app$j (comp$c ?v0 )?v1 ))?v2 )(fun_app$j (comp$c ?v0 )(fun_app$l (comp$e ?v1 )?v2 )))):named a52 ))
(assert (! (forall ((?v0 A_a_fun$ )(?v1 A_a_fun$ )(?v2 A_a_fun$ ))(= (fun_app$h (comp$a (fun_app$h (comp$a ?v0 )?v1 ))?v2 )(fun_app$h (comp$a ?v0 )(fun_app$h (comp$a ?v1 )?v2 )))):named a53 ))
(assert (! (forall ((?v0 Bool_a_fun$ )(?v1 A_bool_fun$ )(?v2 A_a_fun$ ))(= (fun_app$h (comp$a (fun_app$i (comp$b ?v0 )?v1 ))?v2 )(fun_app$i (comp$b ?v0 )(fun_app$n (comp$g ?v1 )?v2 )))):named a54 ))
(assert (! (forall ((?v0 A_a_fun$ )(?v1 Bool_a_fun$ )(?v2 A_bool_fun$ ))(= (fun_app$i (comp$b (fun_app$k (comp$d ?v0 )?v1 ))?v2 )(fun_app$h (comp$a ?v0 )(fun_app$i (comp$b ?v1 )?v2 )))):named a55 ))
(assert (! (forall ((?v0 Bool_a_fun$ )(?v1 A_bool_fun$ )(?v2 A$ ))(! (= (fun_app$f (fun_app$i (comp$b ?v0 )?v1 )?v2 )(fun_app$e ?v0 (fun_app$a ?v1 ?v2 ))):pattern ((fun_app$f (fun_app$i (comp$b ?v0 )?v1 )?v2 )))):named a56 ))
(assert (! (forall ((?v0 A_bool_fun$ )(?v1 Bool_a_fun$ )(?v2 Bool ))(! (= (fun_app$b (fun_app$j (comp$c ?v0 )?v1 )?v2 )(fun_app$a ?v0 (fun_app$e ?v1 ?v2 ))):pattern ((fun_app$b (fun_app$j (comp$c ?v0 )?v1 )?v2 )))):named a57 ))
(assert (! (forall ((?v0 A_a_fun$ )(?v1 Bool_a_fun$ )(?v2 Bool ))(! (= (fun_app$e (fun_app$k (comp$d ?v0 )?v1 )?v2 )(fun_app$f ?v0 (fun_app$e ?v1 ?v2 ))):pattern ((fun_app$e (fun_app$k (comp$d ?v0 )?v1 )?v2 )))):named a58 ))
(assert (! (forall ((?v0 Bool_a_fun$ )(?v1 Bool_bool_fun$ )(?v2 Bool ))(! (= (fun_app$e (fun_app$l (comp$e ?v0 )?v1 )?v2 )(fun_app$e ?v0 (fun_app$b ?v1 ?v2 ))):pattern ((fun_app$e (fun_app$l (comp$e ?v0 )?v1 )?v2 )))):named a59 ))
(assert (! (forall ((?v0 Bool_bool_fun$ )(?v1 Bool_bool_fun$ )(?v2 Bool ))(! (= (fun_app$b (fun_app$m (comp$f ?v0 )?v1 )?v2 )(fun_app$b ?v0 (fun_app$b ?v1 ?v2 ))):pattern ((fun_app$b (fun_app$m (comp$f ?v0 )?v1 )?v2 )))):named a60 ))
(assert (! (forall ((?v0 A_bool_fun$ )(?v1 A_a_fun$ )(?v2 A$ ))(! (= (fun_app$a (fun_app$n (comp$g ?v0 )?v1 )?v2 )(fun_app$a ?v0 (fun_app$f ?v1 ?v2 ))):pattern ((fun_app$a (fun_app$n (comp$g ?v0 )?v1 )?v2 )))):named a61 ))
(assert (! (forall ((?v0 Bool_bool_fun$ )(?v1 A_bool_fun$ )(?v2 A$ ))(! (= (fun_app$a (fun_app$g (comp$ ?v0 )?v1 )?v2 )(fun_app$b ?v0 (fun_app$a ?v1 ?v2 ))):pattern ((fun_app$a (fun_app$g (comp$ ?v0 )?v1 )?v2 )))):named a62 ))
(assert (! (forall ((?v0 Bool_bool_fun$ )(?v1 A_bool_fun$ )(?v2 A_bool_fun$ )(?v3 A_a_fun$ ))(=> (and (= (fun_app$g (comp$ ?v0 )?v1 )(fun_app$n (comp$g ?v2 )?v3 ))(=> (forall ((?v4 A$ ))(= (fun_app$b ?v0 (fun_app$a ?v1 ?v4 ))(fun_app$a ?v2 (fun_app$f ?v3 ?v4 ))))false ))false )):named a63 ))
(assert (! (forall ((?v0 Bool_bool_fun$ )(?v1 Bool_bool_fun$ )(?v2 Bool_bool_fun$ )(?v3 Bool_bool_fun$ ))(=> (and (= (fun_app$m (comp$f ?v0 )?v1 )(fun_app$m (comp$f ?v2 )?v3 ))(=> (forall ((?v4 Bool ))(= (fun_app$b ?v0 (fun_app$b ?v1 ?v4 ))(fun_app$b ?v2 (fun_app$b ?v3 ?v4 ))))false ))false )):named a64 ))
(assert (! (forall ((?v0 A_bool_fun$ )(?v1 A_a_fun$ )(?v2 Bool_bool_fun$ )(?v3 A_bool_fun$ ))(=> (and (= (fun_app$n (comp$g ?v0 )?v1 )(fun_app$g (comp$ ?v2 )?v3 ))(=> (forall ((?v4 A$ ))(= (fun_app$a ?v0 (fun_app$f ?v1 ?v4 ))(fun_app$b ?v2 (fun_app$a ?v3 ?v4 ))))false ))false )):named a65 ))
(assert (! (forall ((?v0 A_bool_fun$ )(?v1 A_a_fun$ )(?v2 A_bool_fun$ )(?v3 A_a_fun$ ))(=> (and (= (fun_app$n (comp$g ?v0 )?v1 )(fun_app$n (comp$g ?v2 )?v3 ))(=> (forall ((?v4 A$ ))(= (fun_app$a ?v0 (fun_app$f ?v1 ?v4 ))(fun_app$a ?v2 (fun_app$f ?v3 ?v4 ))))false ))false )):named a66 ))
(assert (! (forall ((?v0 Bool_bool_fun$ )(?v1 A_bool_fun$ )(?v2 Bool_bool_fun$ )(?v3 A_bool_fun$ ))(=> (and (= (fun_app$g (comp$ ?v0 )?v1 )(fun_app$g (comp$ ?v2 )?v3 ))(=> (forall ((?v4 A$ ))(= (fun_app$b ?v0 (fun_app$a ?v1 ?v4 ))(fun_app$b ?v2 (fun_app$a ?v3 ?v4 ))))false ))false )):named a67 ))
(assert (! (forall ((?v0 Bool_bool_fun$ )(?v1 Bool_bool_fun$ )(?v2 Bool_bool_fun$ )(?v3 Bool ))(=> (= (fun_app$m (comp$f ?v0 )?v1 )?v2 )(= (fun_app$b ?v0 (fun_app$b ?v1 ?v3 ))(fun_app$b ?v2 ?v3 )))):named a68 ))
(assert (! (forall ((?v0 A_bool_fun$ )(?v1 A_a_fun$ )(?v2 A_bool_fun$ )(?v3 A$ ))(=> (= (fun_app$n (comp$g ?v0 )?v1 )?v2 )(= (fun_app$a ?v0 (fun_app$f ?v1 ?v3 ))(fun_app$a ?v2 ?v3 )))):named a69 ))
(assert (! (forall ((?v0 Bool_bool_fun$ )(?v1 A_bool_fun$ )(?v2 A_bool_fun$ )(?v3 A$ ))(=> (= (fun_app$g (comp$ ?v0 )?v1 )?v2 )(= (fun_app$b ?v0 (fun_app$a ?v1 ?v3 ))(fun_app$a ?v2 ?v3 )))):named a70 ))
(assert (! (forall ((?v0 Bool_bool_fun$ )(?v1 A_bool_fun$ )(?v2 A_bool_fun$ )(?v3 A_a_fun$ )(?v4 A$ ))(=> (= (fun_app$g (comp$ ?v0 )?v1 )(fun_app$n (comp$g ?v2 )?v3 ))(= (fun_app$b ?v0 (fun_app$a ?v1 ?v4 ))(fun_app$a ?v2 (fun_app$f ?v3 ?v4 ))))):named a71 ))
(assert (! (forall ((?v0 Bool_bool_fun$ )(?v1 Bool_bool_fun$ )(?v2 Bool_bool_fun$ )(?v3 Bool_bool_fun$ )(?v4 Bool ))(=> (= (fun_app$m (comp$f ?v0 )?v1 )(fun_app$m (comp$f ?v2 )?v3 ))(= (fun_app$b ?v0 (fun_app$b ?v1 ?v4 ))(fun_app$b ?v2 (fun_app$b ?v3 ?v4 ))))):named a72 ))
(assert (! (forall ((?v0 A_bool_fun$ )(?v1 A_a_fun$ )(?v2 Bool_bool_fun$ )(?v3 A_bool_fun$ )(?v4 A$ ))(=> (= (fun_app$n (comp$g ?v0 )?v1 )(fun_app$g (comp$ ?v2 )?v3 ))(= (fun_app$a ?v0 (fun_app$f ?v1 ?v4 ))(fun_app$b ?v2 (fun_app$a ?v3 ?v4 ))))):named a73 ))
(assert (! (forall ((?v0 A_bool_fun$ )(?v1 A_a_fun$ )(?v2 A_bool_fun$ )(?v3 A_a_fun$ )(?v4 A$ ))(=> (= (fun_app$n (comp$g ?v0 )?v1 )(fun_app$n (comp$g ?v2 )?v3 ))(= (fun_app$a ?v0 (fun_app$f ?v1 ?v4 ))(fun_app$a ?v2 (fun_app$f ?v3 ?v4 ))))):named a74 ))
(assert (! (forall ((?v0 Bool_bool_fun$ )(?v1 A_bool_fun$ )(?v2 Bool_bool_fun$ )(?v3 A_bool_fun$ )(?v4 A$ ))(=> (= (fun_app$g (comp$ ?v0 )?v1 )(fun_app$g (comp$ ?v2 )?v3 ))(= (fun_app$b ?v0 (fun_app$a ?v1 ?v4 ))(fun_app$b ?v2 (fun_app$a ?v3 ?v4 ))))):named a75 ))
(assert (! (forall ((?v0 A_stream$ ))(= (shd$ ?v0 )(case_stream$ uuh$ ?v0 ))):named a76 ))
(assert (! (forall ((?v0 Bool_bool_fun$ )(?v1 A_bool_fun$ )(?v2 A$ )(?v3 Bool_bool_fun$ )(?v4 Bool_bool_fun$ )(?v5 Bool ))(=> (= (fun_app$b ?v0 (fun_app$a ?v1 ?v2 ))(fun_app$b ?v3 (fun_app$b ?v4 ?v5 )))(= (fun_app$a (fun_app$g (comp$ ?v0 )?v1 )?v2 )(fun_app$b (fun_app$m (comp$f ?v3 )?v4 )?v5 )))):named a77 ))
(assert (! (forall ((?v0 Bool_bool_fun$ )(?v1 A_bool_fun$ )(?v2 A$ )(?v3 A_bool_fun$ )(?v4 A_a_fun$ )(?v5 A$ ))(=> (= (fun_app$b ?v0 (fun_app$a ?v1 ?v2 ))(fun_app$a ?v3 (fun_app$f ?v4 ?v5 )))(= (fun_app$a (fun_app$g (comp$ ?v0 )?v1 )?v2 )(fun_app$a (fun_app$n (comp$g ?v3 )?v4 )?v5 )))):named a78 ))
(assert (! (forall ((?v0 Bool_bool_fun$ )(?v1 Bool_bool_fun$ )(?v2 Bool )(?v3 Bool_bool_fun$ )(?v4 A_bool_fun$ )(?v5 A$ ))(=> (= (fun_app$b ?v0 (fun_app$b ?v1 ?v2 ))(fun_app$b ?v3 (fun_app$a ?v4 ?v5 )))(= (fun_app$b (fun_app$m (comp$f ?v0 )?v1 )?v2 )(fun_app$a (fun_app$g (comp$ ?v3 )?v4 )?v5 )))):named a79 ))
(assert (! (forall ((?v0 Bool_bool_fun$ )(?v1 Bool_bool_fun$ )(?v2 Bool )(?v3 Bool_bool_fun$ )(?v4 Bool_bool_fun$ )(?v5 Bool ))(=> (= (fun_app$b ?v0 (fun_app$b ?v1 ?v2 ))(fun_app$b ?v3 (fun_app$b ?v4 ?v5 )))(= (fun_app$b (fun_app$m (comp$f ?v0 )?v1 )?v2 )(fun_app$b (fun_app$m (comp$f ?v3 )?v4 )?v5 )))):named a80 ))
(assert (! (forall ((?v0 Bool_bool_fun$ )(?v1 Bool_bool_fun$ )(?v2 Bool )(?v3 A_bool_fun$ )(?v4 A_a_fun$ )(?v5 A$ ))(=> (= (fun_app$b ?v0 (fun_app$b ?v1 ?v2 ))(fun_app$a ?v3 (fun_app$f ?v4 ?v5 )))(= (fun_app$b (fun_app$m (comp$f ?v0 )?v1 )?v2 )(fun_app$a (fun_app$n (comp$g ?v3 )?v4 )?v5 )))):named a81 ))
(assert (! (forall ((?v0 A_bool_fun$ )(?v1 A_a_fun$ )(?v2 A$ )(?v3 Bool_bool_fun$ )(?v4 A_bool_fun$ )(?v5 A$ ))(=> (= (fun_app$a ?v0 (fun_app$f ?v1 ?v2 ))(fun_app$b ?v3 (fun_app$a ?v4 ?v5 )))(= (fun_app$a (fun_app$n (comp$g ?v0 )?v1 )?v2 )(fun_app$a (fun_app$g (comp$ ?v3 )?v4 )?v5 )))):named a82 ))
(assert (! (forall ((?v0 A_bool_fun$ )(?v1 A_a_fun$ )(?v2 A$ )(?v3 Bool_bool_fun$ )(?v4 Bool_bool_fun$ )(?v5 Bool ))(=> (= (fun_app$a ?v0 (fun_app$f ?v1 ?v2 ))(fun_app$b ?v3 (fun_app$b ?v4 ?v5 )))(= (fun_app$a (fun_app$n (comp$g ?v0 )?v1 )?v2 )(fun_app$b (fun_app$m (comp$f ?v3 )?v4 )?v5 )))):named a83 ))
(assert (! (forall ((?v0 A_bool_fun$ )(?v1 A_a_fun$ )(?v2 A$ )(?v3 A_bool_fun$ )(?v4 A_a_fun$ )(?v5 A$ ))(=> (= (fun_app$a ?v0 (fun_app$f ?v1 ?v2 ))(fun_app$a ?v3 (fun_app$f ?v4 ?v5 )))(= (fun_app$a (fun_app$n (comp$g ?v0 )?v1 )?v2 )(fun_app$a (fun_app$n (comp$g ?v3 )?v4 )?v5 )))):named a84 ))
(assert (! (forall ((?v0 Bool_bool_fun$ )(?v1 A_bool_fun$ )(?v2 A$ )(?v3 Bool_bool_fun$ )(?v4 A_bool_fun$ )(?v5 A$ ))(=> (= (fun_app$b ?v0 (fun_app$a ?v1 ?v2 ))(fun_app$b ?v3 (fun_app$a ?v4 ?v5 )))(= (fun_app$a (fun_app$g (comp$ ?v0 )?v1 )?v2 )(fun_app$a (fun_app$g (comp$ ?v3 )?v4 )?v5 )))):named a85 ))
(assert (! (forall ((?v0 Bool_bool_fun$ )(?v1 A_bool_fun$ )(?v2 A$ )(?v3 A_bool_fun$ )(?v4 A_a_fun$ ))(=> (= (fun_app$b ?v0 (fun_app$a ?v1 ?v2 ))(fun_app$a ?v3 (fun_app$f ?v4 ?v2 )))(= (fun_app$a (fun_app$g (comp$ ?v0 )?v1 )?v2 )(fun_app$a (fun_app$n (comp$g ?v3 )?v4 )?v2 )))):named a86 ))
(assert (! (forall ((?v0 Bool_bool_fun$ )(?v1 Bool_bool_fun$ )(?v2 Bool )(?v3 Bool_bool_fun$ )(?v4 Bool_bool_fun$ ))(=> (= (fun_app$b ?v0 (fun_app$b ?v1 ?v2 ))(fun_app$b ?v3 (fun_app$b ?v4 ?v2 )))(= (fun_app$b (fun_app$m (comp$f ?v0 )?v1 )?v2 )(fun_app$b (fun_app$m (comp$f ?v3 )?v4 )?v2 )))):named a87 ))
(assert (! (forall ((?v0 A_bool_fun$ )(?v1 A_a_fun$ )(?v2 A$ )(?v3 Bool_bool_fun$ )(?v4 A_bool_fun$ ))(=> (= (fun_app$a ?v0 (fun_app$f ?v1 ?v2 ))(fun_app$b ?v3 (fun_app$a ?v4 ?v2 )))(= (fun_app$a (fun_app$n (comp$g ?v0 )?v1 )?v2 )(fun_app$a (fun_app$g (comp$ ?v3 )?v4 )?v2 )))):named a88 ))
(assert (! (forall ((?v0 A_bool_fun$ )(?v1 A_a_fun$ )(?v2 A$ )(?v3 A_bool_fun$ )(?v4 A_a_fun$ ))(=> (= (fun_app$a ?v0 (fun_app$f ?v1 ?v2 ))(fun_app$a ?v3 (fun_app$f ?v4 ?v2 )))(= (fun_app$a (fun_app$n (comp$g ?v0 )?v1 )?v2 )(fun_app$a (fun_app$n (comp$g ?v3 )?v4 )?v2 )))):named a89 ))
(assert (! (forall ((?v0 Bool_bool_fun$ )(?v1 A_bool_fun$ )(?v2 A$ )(?v3 Bool_bool_fun$ )(?v4 A_bool_fun$ ))(=> (= (fun_app$b ?v0 (fun_app$a ?v1 ?v2 ))(fun_app$b ?v3 (fun_app$a ?v4 ?v2 )))(= (fun_app$a (fun_app$g (comp$ ?v0 )?v1 )?v2 )(fun_app$a (fun_app$g (comp$ ?v3 )?v4 )?v2 )))):named a90 ))
(assert (! (forall ((?v0 A_bool_fun$ )(?v1 A_a_fun$ )(?v2 A$ )(?v3 Bool_bool_fun$ )(?v4 A_bool_fun$ )(?v5 Bool_bool_fun$ ))(=> (= (fun_app$a ?v0 (fun_app$f ?v1 ?v2 ))(fun_app$b ?v3 (fun_app$a ?v4 ?v2 )))(= (fun_app$a (fun_app$n (comp$g (fun_app$g (comp$ ?v5 )?v0 ))?v1 )?v2 )(fun_app$a (fun_app$g (comp$ (fun_app$m (comp$f ?v5 )?v3 ))?v4 )?v2 )))):named a91 ))
(assert (! (forall ((?v0 Bool_bool_fun$ )(?v1 A_bool_fun$ )(?v2 A$ )(?v3 A_bool_fun$ )(?v4 A_a_fun$ )(?v5 Bool_bool_fun$ ))(=> (= (fun_app$b ?v0 (fun_app$a ?v1 ?v2 ))(fun_app$a ?v3 (fun_app$f ?v4 ?v2 )))(= (fun_app$a (fun_app$g (comp$ (fun_app$m (comp$f ?v5 )?v0 ))?v1 )?v2 )(fun_app$a (fun_app$n (comp$g (fun_app$g (comp$ ?v5 )?v3 ))?v4 )?v2 )))):named a92 ))
(assert (! (forall ((?v0 A_bool_fun$ )(?v1 Bool_a_fun$ )(?v2 Bool )(?v3 Bool_bool_fun$ )(?v4 Bool_bool_fun$ )(?v5 Bool_bool_fun$ ))(=> (= (fun_app$a ?v0 (fun_app$e ?v1 ?v2 ))(fun_app$b ?v3 (fun_app$b ?v4 ?v2 )))(= (fun_app$b (fun_app$j (comp$c (fun_app$g (comp$ ?v5 )?v0 ))?v1 )?v2 )(fun_app$b (fun_app$m (comp$f (fun_app$m (comp$f ?v5 )?v3 ))?v4 )?v2 )))):named a93 ))
(assert (! (forall ((?v0 A_a_fun$ )(?v1 Bool_a_fun$ )(?v2 Bool )(?v3 Bool_a_fun$ )(?v4 Bool_bool_fun$ )(?v5 A_bool_fun$ ))(=> (= (fun_app$f ?v0 (fun_app$e ?v1 ?v2 ))(fun_app$e ?v3 (fun_app$b ?v4 ?v2 )))(= (fun_app$b (fun_app$j (comp$c (fun_app$n (comp$g ?v5 )?v0 ))?v1 )?v2 )(fun_app$b (fun_app$m (comp$f (fun_app$j (comp$c ?v5 )?v3 ))?v4 )?v2 )))):named a94 ))
(assert (! (forall ((?v0 Bool_a_fun$ )(?v1 A_bool_fun$ )(?v2 A$ )(?v3 A_a_fun$ )(?v4 A_a_fun$ )(?v5 A_bool_fun$ ))(=> (= (fun_app$e ?v0 (fun_app$a ?v1 ?v2 ))(fun_app$f ?v3 (fun_app$f ?v4 ?v2 )))(= (fun_app$a (fun_app$g (comp$ (fun_app$j (comp$c ?v5 )?v0 ))?v1 )?v2 )(fun_app$a (fun_app$n (comp$g (fun_app$n (comp$g ?v5 )?v3 ))?v4 )?v2 )))):named a95 ))
(assert (! (forall ((?v0 Bool_bool_fun$ )(?v1 A_bool_fun$ )(?v2 A$ )(?v3 Bool_bool_fun$ )(?v4 A_bool_fun$ )(?v5 Bool_bool_fun$ ))(=> (= (fun_app$b ?v0 (fun_app$a ?v1 ?v2 ))(fun_app$b ?v3 (fun_app$a ?v4 ?v2 )))(= (fun_app$a (fun_app$g (comp$ (fun_app$m (comp$f ?v5 )?v0 ))?v1 )?v2 )(fun_app$a (fun_app$g (comp$ (fun_app$m (comp$f ?v5 )?v3 ))?v4 )?v2 )))):named a96 ))
(assert (! (forall ((?v0 Bool_a_fun$ )(?v1 Bool_bool_fun$ )(?v2 Bool )(?v3 A_a_fun$ )(?v4 Bool_a_fun$ )(?v5 A_bool_fun$ ))(=> (= (fun_app$e ?v0 (fun_app$b ?v1 ?v2 ))(fun_app$f ?v3 (fun_app$e ?v4 ?v2 )))(= (fun_app$b (fun_app$m (comp$f (fun_app$j (comp$c ?v5 )?v0 ))?v1 )?v2 )(fun_app$b (fun_app$j (comp$c (fun_app$n (comp$g ?v5 )?v3 ))?v4 )?v2 )))):named a97 ))
(assert (! (forall ((?v0 Bool_bool_fun$ )(?v1 Bool_bool_fun$ )(?v2 Bool )(?v3 A_bool_fun$ )(?v4 Bool_a_fun$ )(?v5 Bool_bool_fun$ ))(=> (= (fun_app$b ?v0 (fun_app$b ?v1 ?v2 ))(fun_app$a ?v3 (fun_app$e ?v4 ?v2 )))(= (fun_app$b (fun_app$m (comp$f (fun_app$m (comp$f ?v5 )?v0 ))?v1 )?v2 )(fun_app$b (fun_app$j (comp$c (fun_app$g (comp$ ?v5 )?v3 ))?v4 )?v2 )))):named a98 ))
(assert (! (forall ((?v0 Bool_bool_fun$ )(?v1 Bool_bool_fun$ )(?v2 Bool )(?v3 Bool_bool_fun$ )(?v4 Bool_bool_fun$ )(?v5 Bool_bool_fun$ ))(=> (= (fun_app$b ?v0 (fun_app$b ?v1 ?v2 ))(fun_app$b ?v3 (fun_app$b ?v4 ?v2 )))(= (fun_app$b (fun_app$m (comp$f (fun_app$m (comp$f ?v5 )?v0 ))?v1 )?v2 )(fun_app$b (fun_app$m (comp$f (fun_app$m (comp$f ?v5 )?v3 ))?v4 )?v2 )))):named a99 ))
(assert (! (forall ((?v0 A_bool_fun$ )(?v1 A_a_fun$ )(?v2 A$ )(?v3 A_bool_fun$ )(?v4 A_a_fun$ )(?v5 Bool_bool_fun$ ))(=> (= (fun_app$a ?v0 (fun_app$f ?v1 ?v2 ))(fun_app$a ?v3 (fun_app$f ?v4 ?v2 )))(= (fun_app$a (fun_app$n (comp$g (fun_app$g (comp$ ?v5 )?v0 ))?v1 )?v2 )(fun_app$a (fun_app$n (comp$g (fun_app$g (comp$ ?v5 )?v3 ))?v4 )?v2 )))):named a100 ))
(assert (! (forall ((?v0 A_bool_fun$ )(?v1 Bool_a_fun$ )(?v2 Bool_bool_fun$ )(?v3 A_bool_fun$ ))(=> (= (fun_app$j (comp$c ?v0 )?v1 )?v2 )(= (fun_app$n (comp$g ?v0 )(fun_app$i (comp$b ?v1 )?v3 ))(fun_app$g (comp$ ?v2 )?v3 )))):named a101 ))
(assert (! (forall ((?v0 Bool_bool_fun$ )(?v1 A_bool_fun$ )(?v2 A_bool_fun$ )(?v3 Bool_a_fun$ ))(=> (= (fun_app$g (comp$ ?v0 )?v1 )?v2 )(= (fun_app$m (comp$f ?v0 )(fun_app$j (comp$c ?v1 )?v3 ))(fun_app$j (comp$c ?v2 )?v3 )))):named a102 ))
(assert (! (forall ((?v0 Bool_bool_fun$ )(?v1 Bool_bool_fun$ )(?v2 Bool_bool_fun$ )(?v3 Bool_bool_fun$ ))(=> (= (fun_app$m (comp$f ?v0 )?v1 )?v2 )(= (fun_app$m (comp$f ?v0 )(fun_app$m (comp$f ?v1 )?v3 ))(fun_app$m (comp$f ?v2 )?v3 )))):named a103 ))
(assert (! (forall ((?v0 A_bool_fun$ )(?v1 A_a_fun$ )(?v2 A_bool_fun$ )(?v3 A_a_fun$ ))(=> (= (fun_app$n (comp$g ?v0 )?v1 )?v2 )(= (fun_app$n (comp$g ?v0 )(fun_app$h (comp$a ?v1 )?v3 ))(fun_app$n (comp$g ?v2 )?v3 )))):named a104 ))
(assert (! (forall ((?v0 Bool_bool_fun$ )(?v1 Bool_bool_fun$ )(?v2 Bool_bool_fun$ )(?v3 A_bool_fun$ ))(=> (= (fun_app$m (comp$f ?v0 )?v1 )?v2 )(= (fun_app$g (comp$ ?v0 )(fun_app$g (comp$ ?v1 )?v3 ))(fun_app$g (comp$ ?v2 )?v3 )))):named a105 ))
(assert (! (forall ((?v0 Bool_bool_fun$ )(?v1 A_bool_fun$ )(?v2 A_bool_fun$ )(?v3 A_a_fun$ ))(=> (= (fun_app$g (comp$ ?v0 )?v1 )?v2 )(= (fun_app$g (comp$ ?v0 )(fun_app$n (comp$g ?v1 )?v3 ))(fun_app$n (comp$g ?v2 )?v3 )))):named a106 ))
(assert (! (forall ((?v0 A_bool_fun$ )(?v1 Bool_a_fun$ )(?v2 Bool_bool_fun$ )(?v3 Bool_bool_fun$ ))(=> (= (fun_app$j (comp$c ?v0 )?v1 )?v2 )(= (fun_app$j (comp$c (fun_app$g (comp$ ?v3 )?v0 ))?v1 )(fun_app$m (comp$f ?v3 )?v2 )))):named a107 ))
(assert (! (forall ((?v0 Bool_a_fun$ )(?v1 A_bool_fun$ )(?v2 A_a_fun$ )(?v3 A_bool_fun$ ))(=> (= (fun_app$i (comp$b ?v0 )?v1 )?v2 )(= (fun_app$g (comp$ (fun_app$j (comp$c ?v3 )?v0 ))?v1 )(fun_app$n (comp$g ?v3 )?v2 )))):named a108 ))
(assert (! (forall ((?v0 A_a_fun$ )(?v1 A_a_fun$ )(?v2 A_a_fun$ )(?v3 A_bool_fun$ ))(=> (= (fun_app$h (comp$a ?v0 )?v1 )?v2 )(= (fun_app$n (comp$g (fun_app$n (comp$g ?v3 )?v0 ))?v1 )(fun_app$n (comp$g ?v3 )?v2 )))):named a109 ))
(assert (! (forall ((?v0 Bool_bool_fun$ )(?v1 Bool_bool_fun$ )(?v2 Bool_bool_fun$ )(?v3 Bool_bool_fun$ ))(=> (= (fun_app$m (comp$f ?v0 )?v1 )?v2 )(= (fun_app$m (comp$f (fun_app$m (comp$f ?v3 )?v0 ))?v1 )(fun_app$m (comp$f ?v3 )?v2 )))):named a110 ))
(assert (! (forall ((?v0 A_bool_fun$ )(?v1 A_a_fun$ )(?v2 A_bool_fun$ )(?v3 Bool_bool_fun$ ))(=> (= (fun_app$n (comp$g ?v0 )?v1 )?v2 )(= (fun_app$n (comp$g (fun_app$g (comp$ ?v3 )?v0 ))?v1 )(fun_app$g (comp$ ?v3 )?v2 )))):named a111 ))
(assert (! (forall ((?v0 Bool_bool_fun$ )(?v1 A_bool_fun$ )(?v2 A_bool_fun$ )(?v3 Bool_bool_fun$ ))(=> (= (fun_app$g (comp$ ?v0 )?v1 )?v2 )(= (fun_app$g (comp$ (fun_app$m (comp$f ?v3 )?v0 ))?v1 )(fun_app$g (comp$ ?v3 )?v2 )))):named a112 ))
(assert (! (forall ((?v0 Bool_bool_fun$ )(?v1 Bool_bool_fun$ )(?v2 Bool_bool_fun$ )(?v3 Bool_bool_fun$ )(?v4 A_bool_fun$ )(?v5 A_bool_fun$ ))(=> (and (= (fun_app$m (comp$f ?v0 )?v1 )(fun_app$m (comp$f ?v2 )?v3 ))(= (fun_app$g (comp$ ?v3 )?v4 )?v5 ))(= (fun_app$g (comp$ ?v0 )(fun_app$g (comp$ ?v1 )?v4 ))(fun_app$g (comp$ ?v2 )?v5 )))):named a113 ))
(assert (! (forall ((?v0 Bool_bool_fun$ )(?v1 A_bool_fun$ )(?v2 Bool_bool_fun$ )(?v3 A_bool_fun$ )(?v4 A_a_fun$ )(?v5 A_bool_fun$ ))(=> (and (= (fun_app$g (comp$ ?v0 )?v1 )(fun_app$g (comp$ ?v2 )?v3 ))(= (fun_app$n (comp$g ?v3 )?v4 )?v5 ))(= (fun_app$g (comp$ ?v0 )(fun_app$n (comp$g ?v1 )?v4 ))(fun_app$g (comp$ ?v2 )?v5 )))):named a114 ))
(assert (! (forall ((?v0 A_bool_fun$ )(?v1 Bool_a_fun$ )(?v2 Bool_bool_fun$ )(?v3 Bool_bool_fun$ )(?v4 A_bool_fun$ )(?v5 A_bool_fun$ ))(=> (and (= (fun_app$j (comp$c ?v0 )?v1 )(fun_app$m (comp$f ?v2 )?v3 ))(= (fun_app$g (comp$ ?v3 )?v4 )?v5 ))(= (fun_app$n (comp$g ?v0 )(fun_app$i (comp$b ?v1 )?v4 ))(fun_app$g (comp$ ?v2 )?v5 )))):named a115 ))
(assert (! (forall ((?v0 Bool_bool_fun$ )(?v1 A_bool_fun$ )(?v2 Bool_bool_fun$ )(?v3 A_bool_fun$ )(?v4 Bool_a_fun$ )(?v5 Bool_bool_fun$ ))(=> (and (= (fun_app$g (comp$ ?v0 )?v1 )(fun_app$g (comp$ ?v2 )?v3 ))(= (fun_app$j (comp$c ?v3 )?v4 )?v5 ))(= (fun_app$m (comp$f ?v0 )(fun_app$j (comp$c ?v1 )?v4 ))(fun_app$m (comp$f ?v2 )?v5 )))):named a116 ))
(assert (! (forall ((?v0 Bool_bool_fun$ )(?v1 A_bool_fun$ )(?v2 A_bool_fun$ )(?v3 A_a_fun$ )(?v4 A_a_fun$ )(?v5 A_a_fun$ ))(=> (and (= (fun_app$g (comp$ ?v0 )?v1 )(fun_app$n (comp$g ?v2 )?v3 ))(= (fun_app$h (comp$a ?v3 )?v4 )?v5 ))(= (fun_app$g (comp$ ?v0 )(fun_app$n (comp$g ?v1 )?v4 ))(fun_app$n (comp$g ?v2 )?v5 )))):named a117 ))
(assert (! (forall ((?v0 Bool_bool_fun$ )(?v1 A_bool_fun$ )(?v2 A_bool_fun$ )(?v3 A_a_fun$ )(?v4 Bool_a_fun$ )(?v5 Bool_a_fun$ ))(=> (and (= (fun_app$g (comp$ ?v0 )?v1 )(fun_app$n (comp$g ?v2 )?v3 ))(= (fun_app$k (comp$d ?v3 )?v4 )?v5 ))(= (fun_app$m (comp$f ?v0 )(fun_app$j (comp$c ?v1 )?v4 ))(fun_app$j (comp$c ?v2 )?v5 )))):named a118 ))
(assert (! (forall ((?v0 Bool_bool_fun$ )(?v1 Bool_bool_fun$ )(?v2 A_bool_fun$ )(?v3 Bool_a_fun$ )(?v4 A_bool_fun$ )(?v5 A_a_fun$ ))(=> (and (= (fun_app$m (comp$f ?v0 )?v1 )(fun_app$j (comp$c ?v2 )?v3 ))(= (fun_app$i (comp$b ?v3 )?v4 )?v5 ))(= (fun_app$g (comp$ ?v0 )(fun_app$g (comp$ ?v1 )?v4 ))(fun_app$n (comp$g ?v2 )?v5 )))):named a119 ))
(assert (! (forall ((?v0 Bool_bool_fun$ )(?v1 Bool_bool_fun$ )(?v2 Bool_bool_fun$ )(?v3 Bool_bool_fun$ )(?v4 Bool_bool_fun$ )(?v5 Bool_bool_fun$ ))(=> (and (= (fun_app$m (comp$f ?v0 )?v1 )(fun_app$m (comp$f ?v2 )?v3 ))(= (fun_app$m (comp$f ?v3 )?v4 )?v5 ))(= (fun_app$m (comp$f ?v0 )(fun_app$m (comp$f ?v1 )?v4 ))(fun_app$m (comp$f ?v2 )?v5 )))):named a120 ))
(assert (! (forall ((?v0 A_bool_fun$ )(?v1 A_a_fun$ )(?v2 Bool_bool_fun$ )(?v3 A_bool_fun$ )(?v4 Bool_a_fun$ )(?v5 Bool_bool_fun$ ))(=> (and (= (fun_app$n (comp$g ?v0 )?v1 )(fun_app$g (comp$ ?v2 )?v3 ))(= (fun_app$j (comp$c ?v3 )?v4 )?v5 ))(= (fun_app$j (comp$c ?v0 )(fun_app$k (comp$d ?v1 )?v4 ))(fun_app$m (comp$f ?v2 )?v5 )))):named a121 ))
(assert (! (forall ((?v0 A_bool_fun$ )(?v1 A_a_fun$ )(?v2 Bool_bool_fun$ )(?v3 A_bool_fun$ )(?v4 A_a_fun$ )(?v5 A_bool_fun$ ))(=> (and (= (fun_app$n (comp$g ?v0 )?v1 )(fun_app$g (comp$ ?v2 )?v3 ))(= (fun_app$n (comp$g ?v3 )?v4 )?v5 ))(= (fun_app$n (comp$g ?v0 )(fun_app$h (comp$a ?v1 )?v4 ))(fun_app$g (comp$ ?v2 )?v5 )))):named a122 ))
(assert (! (forall ((?v0 A_bool_fun$ )(?v1 A_a_fun$ )(?v2 Bool_bool_fun$ )(?v3 A_bool_fun$ )(?v4 Bool_bool_fun$ )(?v5 Bool_bool_fun$ ))(=> (and (= (fun_app$n (comp$g ?v0 )?v1 )(fun_app$g (comp$ ?v2 )?v3 ))(= (fun_app$m (comp$f ?v4 )?v2 )?v5 ))(= (fun_app$n (comp$g (fun_app$g (comp$ ?v4 )?v0 ))?v1 )(fun_app$g (comp$ ?v5 )?v3 )))):named a123 ))
(assert (! (forall ((?v0 Bool_bool_fun$ )(?v1 A_bool_fun$ )(?v2 A_bool_fun$ )(?v3 A_a_fun$ )(?v4 Bool_bool_fun$ )(?v5 A_bool_fun$ ))(=> (and (= (fun_app$g (comp$ ?v0 )?v1 )(fun_app$n (comp$g ?v2 )?v3 ))(= (fun_app$g (comp$ ?v4 )?v2 )?v5 ))(= (fun_app$g (comp$ (fun_app$m (comp$f ?v4 )?v0 ))?v1 )(fun_app$n (comp$g ?v5 )?v3 )))):named a124 ))
(assert (! (forall ((?v0 Bool_bool_fun$ )(?v1 A_bool_fun$ )(?v2 Bool_bool_fun$ )(?v3 A_bool_fun$ )(?v4 Bool_bool_fun$ )(?v5 Bool_bool_fun$ ))(=> (and (= (fun_app$g (comp$ ?v0 )?v1 )(fun_app$g (comp$ ?v2 )?v3 ))(= (fun_app$m (comp$f ?v4 )?v2 )?v5 ))(= (fun_app$g (comp$ (fun_app$m (comp$f ?v4 )?v0 ))?v1 )(fun_app$g (comp$ ?v5 )?v3 )))):named a125 ))
(assert (! (forall ((?v0 A_a_fun$ )(?v1 Bool_a_fun$ )(?v2 Bool_a_fun$ )(?v3 Bool_bool_fun$ )(?v4 A_bool_fun$ )(?v5 Bool_bool_fun$ ))(=> (and (= (fun_app$k (comp$d ?v0 )?v1 )(fun_app$l (comp$e ?v2 )?v3 ))(= (fun_app$j (comp$c ?v4 )?v2 )?v5 ))(= (fun_app$j (comp$c (fun_app$n (comp$g ?v4 )?v0 ))?v1 )(fun_app$m (comp$f ?v5 )?v3 )))):named a126 ))
(assert (! (forall ((?v0 A_a_fun$ )(?v1 A_a_fun$ )(?v2 Bool_a_fun$ )(?v3 A_bool_fun$ )(?v4 A_bool_fun$ )(?v5 Bool_bool_fun$ ))(=> (and (= (fun_app$h (comp$a ?v0 )?v1 )(fun_app$i (comp$b ?v2 )?v3 ))(= (fun_app$j (comp$c ?v4 )?v2 )?v5 ))(= (fun_app$n (comp$g (fun_app$n (comp$g ?v4 )?v0 ))?v1 )(fun_app$g (comp$ ?v5 )?v3 )))):named a127 ))
(assert (! (forall ((?v0 Bool_a_fun$ )(?v1 A_bool_fun$ )(?v2 A_a_fun$ )(?v3 A_a_fun$ )(?v4 A_bool_fun$ )(?v5 A_bool_fun$ ))(=> (and (= (fun_app$i (comp$b ?v0 )?v1 )(fun_app$h (comp$a ?v2 )?v3 ))(= (fun_app$n (comp$g ?v4 )?v2 )?v5 ))(= (fun_app$g (comp$ (fun_app$j (comp$c ?v4 )?v0 ))?v1 )(fun_app$n (comp$g ?v5 )?v3 )))):named a128 ))
(assert (! (forall ((?v0 Bool_a_fun$ )(?v1 Bool_bool_fun$ )(?v2 A_a_fun$ )(?v3 Bool_a_fun$ )(?v4 A_bool_fun$ )(?v5 A_bool_fun$ ))(=> (and (= (fun_app$l (comp$e ?v0 )?v1 )(fun_app$k (comp$d ?v2 )?v3 ))(= (fun_app$n (comp$g ?v4 )?v2 )?v5 ))(= (fun_app$m (comp$f (fun_app$j (comp$c ?v4 )?v0 ))?v1 )(fun_app$j (comp$c ?v5 )?v3 )))):named a129 ))
(assert (! (forall ((?v0 A_a_fun$ )(?v1 A_a_fun$ )(?v2 A_a_fun$ )(?v3 A_a_fun$ )(?v4 A_bool_fun$ )(?v5 A_bool_fun$ ))(=> (and (= (fun_app$h (comp$a ?v0 )?v1 )(fun_app$h (comp$a ?v2 )?v3 ))(= (fun_app$n (comp$g ?v4 )?v2 )?v5 ))(= (fun_app$n (comp$g (fun_app$n (comp$g ?v4 )?v0 ))?v1 )(fun_app$n (comp$g ?v5 )?v3 )))):named a130 ))
(assert (! (forall ((?v0 A_bool_fun$ )(?v1 Bool_a_fun$ )(?v2 Bool_bool_fun$ )(?v3 Bool_bool_fun$ )(?v4 Bool_bool_fun$ )(?v5 Bool_bool_fun$ ))(=> (and (= (fun_app$j (comp$c ?v0 )?v1 )(fun_app$m (comp$f ?v2 )?v3 ))(= (fun_app$m (comp$f ?v4 )?v2 )?v5 ))(= (fun_app$j (comp$c (fun_app$g (comp$ ?v4 )?v0 ))?v1 )(fun_app$m (comp$f ?v5 )?v3 )))):named a131 ))
(assert (! (forall ((?v0 Bool_bool_fun$ )(?v1 Bool_bool_fun$ )(?v2 A_bool_fun$ )(?v3 Bool_a_fun$ )(?v4 Bool_bool_fun$ )(?v5 A_bool_fun$ ))(=> (and (= (fun_app$m (comp$f ?v0 )?v1 )(fun_app$j (comp$c ?v2 )?v3 ))(= (fun_app$g (comp$ ?v4 )?v2 )?v5 ))(= (fun_app$m (comp$f (fun_app$m (comp$f ?v4 )?v0 ))?v1 )(fun_app$j (comp$c ?v5 )?v3 )))):named a132 ))
(assert (! (forall ((?v0 A_bool_fun$ )(?v1 A_stream$ ))(= (sdrop_while$ ?v0 ?v1 )(ite (fun_app$a ?v0 (shd$ ?v1 ))(sdrop_while$ ?v0 (stl$ ?v1 ))?v1 ))):named a133 ))
(check-sat )
(get-unsat-core )
